qbf_easy_train/easy_4318_SAT.qdimacs
p cnf 16 31
a 9 10 1 0
e 2 3 4 5 6 7 8 11 12 13 14 15 16 0
-1 -2 -3 0
1 2 -3 0
-1 2 3 0
1 -2 3 0
6 4 0
6 -5 0
-4 5 -6 0
7 -3 0
7 -6 0
3 6 -7 0
4 8 -9 0
-4 -8 -9 0
4 -8 9 0
-4 8 9 0
-7 -9 -10 0
7 9 -10 0
-7 9 10 0
7 -9 10 0
-14 12 0
-14 -13 0
-12 13 14 0
15 -11 0
15 14 0
11 -14 -15 0
16 10 0
16 -15 0
-10 15 -16 0
10 -4 16 0
-14 -5 0
3 2 -9 10 -13 0
16 0
