sat_easy_train/easy_4318_SAT.dimacs
p cnf 131 433
1 2 -3 0
-1 -2 -3 0
1 -2 3 0
-1 2 3 0
-3 4 -5 0
3 -4 -5 0
-3 -4 5 0
3 4 5 0
-6 -1 0
-6 -5 0
1 5 6 0
-1 6 -7 0
1 -6 -7 0
-1 -6 7 0
1 6 7 0
-8 7 0
-8 1 0
-7 -1 8 0
11 -9 0
11 10 0
9 -10 -11 0
-12 -8 0
-12 -11 0
8 11 12 0
-13 14 -15 0
13 -14 -15 0
-13 -14 15 0
13 14 15 0
-15 16 -17 0
15 -16 -17 0
-15 -16 17 0
15 16 17 0
-19 -17 0
-19 -18 0
17 18 19 0
-13 19 -20 0
13 -19 -20 0
-13 -19 20 0
13 19 20 0
-21 -12 0
-21 -20 0
12 20 21 0
23 1 0
23 22 0
-1 -22 -23 0
-24 2 0
-24 23 0
-2 -23 24 0
25 21 0
25 -24 0
-21 24 -25 0
26 4 0
26 -1 0
-4 1 -26 0
-26 27 -28 0
26 -27 -28 0
-26 -27 28 0
26 27 28 0
30 -15 0
30 29 0
15 -29 -30 0
31 -10 0
31 -30 0
10 30 -31 0
-32 31 0
-32 -27 0
-31 27 32 0
-33 10 0
-33 -32 0
-10 32 33 0
-28 33 -34 0
28 -33 -34 0
-28 -33 34 0
28 33 34 0
-3 -27 -35 0
3 27 -35 0
-3 27 35 0
3 -27 35 0
-36 -14 0
-36 35 0
14 -35 36 0
36 14 -37 0
-36 -14 -37 0
36 -14 37 0
-36 14 37 0
-37 38 0
37 38 0
-39 -34 0
-39 -38 0
34 38 39 0
-7 -8 -40 0
7 8 -40 0
-7 8 40 0
7 -8 40 0
41 10 0
41 4 0
-10 -4 -41 0
41 9 -42 0
-41 -9 -42 0
41 -9 42 0
-41 9 42 0
-41 28 -43 0
41 -28 -43 0
-41 -28 43 0
41 28 43 0
-44 -42 0
-44 -43 0
42 43 44 0
45 -44 0
45 -23 0
44 23 -45 0
40 45 -46 0
-40 -45 -46 0
40 -45 46 0
-40 45 46 0
47 -27 0
47 -14 0
27 14 -47 0
-48 -17 0
-48 4 0
17 -4 48 0
-49 17 0
-49 -18 0
-17 18 49 0
50 -1 0
50 49 0
1 -49 -50 0
-51 48 0
-51 -50 0
-48 50 51 0
-47 -51 -52 0
47 51 -52 0
-47 51 52 0
47 -51 52 0
-46 -52 -53 0
46 52 -53 0
-46 52 53 0
46 -52 53 0
-54 -39 0
-54 -53 0
39 53 54 0
-56 -55 0
-56 18 0
55 -18 56 0
58 56 0
58 -57 0
-56 57 -58 0
-28 -31 -59 0
28 31 -59 0
-28 31 59 0
28 -31 59 0
59 -17 -60 0
-59 17 -60 0
59 17 60 0
-59 -17 60 0
-61 -6 0
-61 2 0
6 -2 61 0
-62 60 0
-62 -61 0
-60 61 62 0
-63 -58 0
-63 -62 0
58 62 63 0
64 -54 0
64 -63 0
54 63 -64 0
65 25 0
65 -64 0
-25 64 -65 0
66 30 0
66 -42 0
-30 42 -66 0
30 -66 -67 0
-30 66 -67 0
30 66 67 0
-30 -66 67 0
-68 -59 0
-68 -31 0
59 31 68 0
69 67 0
69 -68 0
-67 68 -69 0
70 -36 0
70 69 0
36 -69 -70 0
-5 -49 -71 0
5 49 -71 0
-5 49 71 0
5 -49 71 0
72 -2 0
72 71 0
2 -71 -72 0
-73 -70 0
-73 -72 0
70 72 73 0
-74 11 0
-74 -9 0
-11 9 74 0
-68 -59 -75 0
68 59 -75 0
-68 59 75 0
68 -59 75 0
76 -74 0
76 75 0
74 -75 -76 0
-77 -1 0
-77 -17 0
1 17 77 0
78 -76 0
78 -77 0
76 77 -78 0
79 73 0
79 -78 0
-73 78 -79 0
80 41 0
80 -36 0
-41 36 -80 0
36 -26 -81 0
-36 26 -81 0
36 26 81 0
-36 -26 81 0
82 -80 0
82 81 0
80 -81 -82 0
83 -4 0
83 30 0
4 -30 -83 0
-84 -83 0
-84 -23 0
83 23 84 0
85 -9 0
85 29 0
9 -29 -85 0
86 -9 0
86 -6 0
9 6 -86 0
-87 85 0
-87 -86 0
-85 86 87 0
84 87 -88 0
-84 -87 -88 0
84 -87 88 0
-84 87 88 0
-89 82 0
-89 88 0
-82 -88 89 0
35 -55 -91 0
-35 55 -91 0
35 55 91 0
-35 -55 91 0
92 91 0
92 -49 0
-91 49 -92 0
-93 -92 0
-93 11 0
92 -11 93 0
-90 93 -94 0
90 -93 -94 0
-90 -93 94 0
90 93 94 0
95 -90 0
95 1 0
90 -1 -95 0
96 -94 0
96 -95 0
94 95 -96 0
-18 22 -97 0
18 -22 -97 0
-18 -22 97 0
18 22 97 0
-98 96 0
-98 -97 0
-96 97 98 0
-99 44 0
-99 48 0
-44 -48 99 0
100 -98 0
100 99 0
98 -99 -100 0
-101 -44 0
-101 -68 0
44 68 101 0
103 101 0
103 102 0
-101 -102 -103 0
104 18 0
104 11 0
-18 -11 -104 0
105 103 0
105 104 0
-103 -104 -105 0
106 100 0
106 105 0
-100 -105 -106 0
-107 -89 0
-107 -106 0
89 106 107 0
108 13 0
108 -49 0
-13 49 -108 0
-109 18 0
-109 6 0
-18 -6 109 0
110 -66 0
110 -109 0
66 109 -110 0
-111 -110 0
-111 28 0
110 -28 111 0
112 -56 0
112 10 0
56 -10 -112 0
-113 111 0
-113 112 0
-111 -112 113 0
-114 -31 0
-114 -68 0
31 68 114 0
-115 35 0
-115 18 0
-35 -18 115 0
66 115 -116 0
-66 -115 -116 0
66 -115 116 0
-66 115 116 0
42 -116 -117 0
-42 116 -117 0
42 116 117 0
-42 -116 117 0
-118 -114 0
-118 117 0
114 -117 118 0
-113 118 -119 0
113 -118 -119 0
-113 -118 119 0
113 118 119 0
-108 119 -120 0
108 -119 -120 0
-108 -119 120 0
108 119 120 0
107 -120 -121 0
-107 120 -121 0
107 120 121 0
-107 -120 121 0
122 -79 0
122 121 0
79 -121 -122 0
123 17 0
123 109 0
-17 -109 -123 0
124 -18 0
124 49 0
18 -49 -124 0
125 -123 0
125 124 0
123 -124 -125 0
-5 -42 -126 0
5 42 -126 0
-5 42 126 0
5 -42 126 0
127 -125 0
127 126 0
125 -126 -127 0
-128 122 0
-128 127 0
-122 -127 128 0
-129 65 0
-129 128 0
-65 -128 129 0
-130 56 0
-130 71 0
-56 -71 130 0
-131 -129 0
-131 -130 0
129 130 131 0
98 26 0
83 -36 -25 35 0
36 130 -40 -9 121 -16 0
-73 129 -48 104 0
-78 51 58 0
99 124 121 -34 -90 67 0
96 -116 -52 0
67 73 -21 -22 0
-86 -29 -124 83 114 99 0
27 -7 0
116 101 83 27 71 0
127 -43 -66 74 9 121 0
30 83 -65 -3 125 -40 0
37 4 -15 -115 92 0
-99 -94 0
47 -21 -107 5 -20 -104 0
-70 -94 0
15 -114 -119 -16 -123 -57 0
-52 38 -122 -53 -92 0
53 -35 0
87 -7 0
62 21 12 -69 0
2 85 -51 66 90 0
-98 -111 -99 0
38 -24 26 -58 -20 93 0
-1 21 35 -39 -105 55 0
-13 -33 -17 0
4 90 -95 0
-30 -57 0
99 59 -79 0
90 32 -34 0
-36 71 -28 -19 50 0
-55 57 -95 105 0
-127 21 10 2 116 0
-47 -63 107 29 0
-112 43 0
16 27 -53 0
29 23 0
14 75 -78 83 48 71 0
126 58 64 -11 98 0
44 60 -76 -88 -9 0
16 40 -113 8 19 0
-94 -95 13 98 -62 0
-129 12 -93 3 -55 0
-38 -59 -100 103 8 0
-77 115 29 -131 0
-44 -72 90 0
-69 -129 0
-45 -12 -8 -6 0
-80 126 127 70 81 0
18 129 -46 29 0
121 -117 40 -75 -23 -36 0
54 57 -64 130 0
2 -72 96 77 -78 -46 0
-19 -86 124 -6 -29 -128 0
-25 -117 11 0
131 0
